BenchmarksExist/FFmpeg/CWE-189-Numeric-Errors/CVE_2013_0862_f4fb841ad13bab66d4fb0c7ff2a94770df7815d8/process_frame_obj_SnippetExist32.smt2
; benchmark generated from python API
(set-info :status unknown)
(declare-fun rdi () (_ BitVec 64))
(declare-fun rsi () (_ BitVec 64))
(assert
 (let (($x117 (not (bvsle (ite (bvsle ((_ extract 31 0) rdi) (_ bv16 32)) (_ bv16 32) ((_ extract 31 0) rdi)) (_ bv0 32)))))
 (let (($x115 (not (bvsle (ite (bvsle ((_ extract 31 0) rsi) (_ bv13 32)) (_ bv13 32) ((_ extract 31 0) rsi)) (_ bv0 32)))))
 (let ((?x15 ((_ extract 31 0) rsi)))
 (let (($x62 (bvsle ?x15 (_ bv13 32))))
 (let ((?x100 (ite $x62 (_ bv13 28) ((_ extract 27 0) rsi))))
 (let ((?x101 (bvadd (_ bv128 28) ?x100)))
 (let ((?x9 ((_ extract 31 0) rdi)))
 (let (($x54 (bvsle ?x9 (_ bv16 32))))
 (let ((?x90 (ite $x54 (_ bv16 28) ((_ extract 27 0) rdi))))
 (let ((?x91 (bvadd (_ bv128 28) ?x90)))
 (let (($x144 (bvule (bvmul ?x91 ?x101) (_ bv268435454 28))))
 (let ((?x63 (ite $x62 (_ bv13 32) ?x15)))
 (let ((?x65 (bvadd (_ bv128 32) ?x63)))
 (let ((?x66 (concat (_ bv0 32) ?x65)))
 (let ((?x55 (ite $x54 (_ bv16 32) ?x9)))
 (let ((?x60 (bvadd (_ bv128 32) ?x55)))
 (let ((?x61 (concat (_ bv0 32) ?x60)))
 (let ((?x67 (bvmul ?x61 ?x66)))
 (let (($x75 (= ((_ extract 63 28) ?x67) (_ bv0 36))))
 (and $x75 $x144 $x115 $x117)))))))))))))))))))))
(check-sat)
